\ Model P2E2_ILP
\ LP format - for model browsing. Use MPS format to capture full model detail.
Minimize
  a0 + a1 + a2 + a3 + a4 + a5 + a6 + a7 + a8 + a9 + a10
Subject To
 head_hidden_0: a0 - h0_0 = 0
 rdr_addr_0: b0 - h0_0 = 0
 tail_sync_0_1: - a1 + t0_1 = 0
 tail_sync_0_0: - a0 + t0_0 = 0
 tail_req_0: - b0 + t0_1 >= 0
 head_hidden_1: a0 - h1_0 = 0
 rdr_addr_1: b1 - h1_0 = 0
 tail_sync_1_2: - a2 + t1_2 = 0
 tail_sync_1_0: - a0 + t1_0 = 0
 tail_req_1: - b1 + t1_2 >= 0
 head_hidden_2: a0 - h2_0 = 0
 rdr_addr_2: b2 - h2_0 = 0
 tail_sync_2_3: - a3 + t2_3 = 0
 tail_sync_2_0: - a0 + t2_0 = 0
 tail_req_2: - b2 + t2_3 >= 0
 head_hidden_3: a0 - h3_0 = 0
 rdr_addr_3: b3 - h3_0 = 0
 tail_sync_3_4: - a4 + t3_4 = 0
 tail_sync_3_0: - a0 + t3_0 = 0
 tail_req_3: - b3 + t3_4 >= 0
 head_hidden_3: a1 - h3_1 = 0
 rdr_addr_3: b0 - h3_1 = 0
 tail_sync_3_1: - a1 + t3_1 = 0
 tail_sync_3_0: - a0 + t3_0 = 0
 tail_req_3: - b0 + t3_0 >= 0
 head_hidden_4: a1 - h4_1 = 0
 rdr_addr_4: b4 - h4_1 = 0
 tail_sync_4_5: - a5 + t4_5 = 0
 tail_sync_4_1: - a1 + t4_1 = 0
 tail_req_4: - b4 + t4_5 >= 0
 head_hidden_5: a1 - h5_1 = 0
 rdr_addr_5: b5 - h5_1 = 0
 tail_sync_5_1: - a1 + t5_1 = 0
 tail_sync_5_6: - a6 + t5_6 = 0
 tail_req_5: - b5 + t5_6 >= 0
 head_hidden_6: a1 - h6_1 = 0
 rdr_addr_6: b6 - h6_1 = 0
 tail_sync_6_2: - a2 + t6_2 = 0
 tail_sync_6_1: - a1 + t6_1 = 0
 tail_req_6: - b6 + t6_2 >= 0
 head_hidden_7: a1 - h7_1 = 0
 rdr_addr_7: b7 - h7_1 = 0
 tail_sync_7_3: - a3 + t7_3 = 0
 tail_sync_7_1: - a1 + t7_1 = 0
 tail_req_7: - b7 + t7_3 >= 0
 head_hidden_8: a1 - h8_1 = 0
 rdr_addr_8: b8 - h8_1 = 0
 tail_sync_8_1: - a1 + t8_1 = 0
 tail_sync_8_4: - a4 + t8_4 = 0
 tail_req_8: - b8 + t8_4 >= 0
 head_hidden_8: a2 - h8_2 = 0
 rdr_addr_8: b1 - h8_2 = 0
 tail_sync_8_2: - a2 + t8_2 = 0
 tail_sync_8_0: - a0 + t8_0 = 0
 tail_req_8: - b1 + t8_0 >= 0
 head_hidden_8: a2 - h8_2 = 0
 rdr_addr_8: b6 - h8_2 = 0
 tail_sync_8_2: - a2 + t8_2 = 0
 tail_sync_8_1: - a1 + t8_1 = 0
 tail_req_8: - b6 + t8_1 >= 0
 head_hidden_9: a2 - h9_2 = 0
 rdr_addr_9: b9 - h9_2 = 0
 tail_sync_9_2: - a2 + t9_2 = 0
 tail_sync_9_3: - a3 + t9_3 = 0
 tail_req_9: - b9 + t9_3 >= 0
 head_hidden_10: a2 - h10_2 = 0
 rdr_addr_10: b10 - h10_2 = 0
 tail_sync_10_2: - a2 + t10_2 = 0
 tail_sync_10_4: - a4 + t10_4 = 0
 tail_req_10: - b10 + t10_4 >= 0
 head_hidden_11: a2 - h11_2 = 0
 rdr_addr_11: b11 - h11_2 = 0
 tail_sync_11_2: - a2 + t11_2 = 0
 tail_sync_11_6: - a6 + t11_6 = 0
 tail_req_11: - b11 + t11_6 >= 0
 head_hidden_12: a2 - h12_2 = 0
 rdr_addr_12: b12 - h12_2 = 0
 tail_sync_12_2: - a2 + t12_2 = 0
 tail_sync_12_7: - a7 + t12_7 = 0
 tail_req_12: - b12 + t12_7 >= 0
 head_hidden_12: a3 - h12_3 = 0
 rdr_addr_12: b2 - h12_3 = 0
 tail_sync_12_3: - a3 + t12_3 = 0
 tail_sync_12_0: - a0 + t12_0 = 0
 tail_req_12: - b2 + t12_0 >= 0
 head_hidden_12: a3 - h12_3 = 0
 rdr_addr_12: b9 - h12_3 = 0
 tail_sync_12_2: - a2 + t12_2 = 0
 tail_sync_12_3: - a3 + t12_3 = 0
 tail_req_12: - b9 + t12_2 >= 0
 head_hidden_12: a3 - h12_3 = 0
 rdr_addr_12: b7 - h12_3 = 0
 tail_sync_12_3: - a3 + t12_3 = 0
 tail_sync_12_1: - a1 + t12_1 = 0
 tail_req_12: - b7 + t12_1 >= 0
 head_hidden_13: a3 - h13_3 = 0
 rdr_addr_13: b13 - h13_3 = 0
 tail_sync_13_3: - a3 + t13_3 = 0
 tail_sync_13_4: - a4 + t13_4 = 0
 tail_req_13: - b13 + t13_4 >= 0
 head_hidden_14: a3 - h14_3 = 0
 rdr_addr_14: b14 - h14_3 = 0
 tail_sync_14_3: - a3 + t14_3 = 0
 tail_sync_14_6: - a6 + t14_6 = 0
 tail_req_14: - b14 + t14_6 >= 0
 head_hidden_15: a3 - h15_3 = 0
 rdr_addr_15: b15 - h15_3 = 0
 tail_sync_15_3: - a3 + t15_3 = 0
 tail_sync_15_7: - a7 + t15_7 = 0
 tail_req_15: - b15 + t15_7 >= 0
 head_hidden_16: a3 - h16_3 = 0
 rdr_addr_16: b16 - h16_3 = 0
 tail_sync_16_3: - a3 + t16_3 = 0
 tail_sync_16_8: - a8 + t16_8 = 0
 tail_sync_16_9: - a9 + t16_9 = 0
 tail_req_16: - b16 + t16_8 + t16_9 >= 0
 head_hidden_17: a3 - h17_3 = 0
 rdr_addr_17: b17 - h17_3 = 0
 tail_sync_17_3: - a3 + t17_3 = 0
 tail_sync_17_8: - a8 + t17_8 = 0
 tail_sync_17_10: - a10 + t17_10 = 0
 tail_req_17: - b17 + t17_8 + t17_10 >= 0
 head_hidden_18: a3 - h18_3 = 0
 rdr_addr_18: b18 - h18_3 = 0
 tail_sync_18_3: - a3 + t18_3 = 0
 tail_sync_18_10: - a10 + t18_10 = 0
 tail_sync_18_9: - a9 + t18_9 = 0
 tail_req_18: - b18 + t18_10 + t18_9 >= 0
 head_hidden_19: a3 - h19_3 = 0
 rdr_addr_19: b19 - h19_3 = 0
 tail_sync_19_3: - a3 + t19_3 = 0
 tail_sync_19_6: - a6 + t19_6 = 0
 tail_sync_19_10: - a10 + t19_10 = 0
 tail_req_19: - b19 + t19_6 + t19_10 >= 0
 head_hidden_19: a4 - h19_4 = 0
 rdr_addr_19: b3 - h19_4 = 0
 tail_sync_19_4: - a4 + t19_4 = 0
 tail_sync_19_0: - a0 + t19_0 = 0
 tail_req_19: - b3 + t19_0 >= 0
 head_hidden_19: a4 - h19_4 = 0
 rdr_addr_19: b10 - h19_4 = 0
 tail_sync_19_2: - a2 + t19_2 = 0
 tail_sync_19_4: - a4 + t19_4 = 0
 tail_req_19: - b10 + t19_2 >= 0
 head_hidden_19: a4 - h19_4 = 0
 rdr_addr_19: b8 - h19_4 = 0
 tail_sync_19_1: - a1 + t19_1 = 0
 tail_sync_19_4: - a4 + t19_4 = 0
 tail_req_19: - b8 + t19_1 >= 0
 head_hidden_19: a4 - h19_4 = 0
 rdr_addr_19: b13 - h19_4 = 0
 tail_sync_19_3: - a3 + t19_3 = 0
 tail_sync_19_4: - a4 + t19_4 = 0
 tail_req_19: - b13 + t19_3 >= 0
 head_hidden_20: a4 - h20_4 = 0
 rdr_addr_20: b20 - h20_4 = 0
 tail_sync_20_4: - a4 + t20_4 = 0
 tail_sync_20_6: - a6 + t20_6 = 0
 tail_req_20: - b20 + t20_6 >= 0
 head_hidden_21: a4 - h21_4 = 0
 rdr_addr_21: b21 - h21_4 = 0
 tail_sync_21_4: - a4 + t21_4 = 0
 tail_sync_21_7: - a7 + t21_7 = 0
 tail_req_21: - b21 + t21_7 >= 0
 head_hidden_22: a4 - h22_4 = 0
 rdr_addr_22: b22 - h22_4 = 0
 tail_sync_22_4: - a4 + t22_4 = 0
 tail_sync_22_10: - a10 + t22_10 = 0
 tail_sync_22_9: - a9 + t22_9 = 0
 tail_req_22: - b22 + t22_10 + t22_9 >= 0
 head_hidden_23: a4 - h23_4 = 0
 rdr_addr_23: b23 - h23_4 = 0
 tail_sync_23_8: - a8 + t23_8 = 0
 tail_sync_23_4: - a4 + t23_4 = 0
 tail_sync_23_9: - a9 + t23_9 = 0
 tail_req_23: - b23 + t23_8 + t23_9 >= 0
 head_hidden_23: a5 - h23_5 = 0
 rdr_addr_23: b4 - h23_5 = 0
 tail_sync_23_5: - a5 + t23_5 = 0
 tail_sync_23_1: - a1 + t23_1 = 0
 tail_req_23: - b4 + t23_1 >= 0
 head_hidden_24: a5 - h24_5 = 0
 rdr_addr_24: b24 - h24_5 = 0
 tail_sync_24_5: - a5 + t24_5 = 0
 tail_sync_24_7: - a7 + t24_7 = 0
 tail_req_24: - b24 + t24_7 >= 0
 head_hidden_25: a5 - h25_5 = 0
 rdr_addr_25: b25 - h25_5 = 0
 tail_sync_25_5: - a5 + t25_5 = 0
 tail_sync_25_6: - a6 + t25_6 = 0
 tail_req_25: - b25 + t25_6 >= 0
 head_hidden_25: a6 - h25_6 = 0
 rdr_addr_25: b5 - h25_6 = 0
 tail_sync_25_1: - a1 + t25_1 = 0
 tail_sync_25_6: - a6 + t25_6 = 0
 tail_req_25: - b5 + t25_1 >= 0
 head_hidden_25: a6 - h25_6 = 0
 rdr_addr_25: b25 - h25_6 = 0
 tail_sync_25_5: - a5 + t25_5 = 0
 tail_sync_25_6: - a6 + t25_6 = 0
 tail_req_25: - b25 + t25_5 >= 0
 head_hidden_25: a6 - h25_6 = 0
 rdr_addr_25: b11 - h25_6 = 0
 tail_sync_25_2: - a2 + t25_2 = 0
 tail_sync_25_6: - a6 + t25_6 = 0
 tail_req_25: - b11 + t25_2 >= 0
 head_hidden_25: a6 - h25_6 = 0
 rdr_addr_25: b14 - h25_6 = 0
 tail_sync_25_3: - a3 + t25_3 = 0
 tail_sync_25_6: - a6 + t25_6 = 0
 tail_req_25: - b14 + t25_3 >= 0
 head_hidden_25: a6 - h25_6 = 0
 rdr_addr_25: b20 - h25_6 = 0
 tail_sync_25_4: - a4 + t25_4 = 0
 tail_sync_25_6: - a6 + t25_6 = 0
 tail_req_25: - b20 + t25_4 >= 0
 head_hidden_26: a6 - h26_6 = 0
 rdr_addr_26: b26 - h26_6 = 0
 tail_sync_26_6: - a6 + t26_6 = 0
 tail_sync_26_7: - a7 + t26_7 = 0
 tail_req_26: - b26 + t26_7 >= 0
 head_hidden_26: a6 - h26_6 = 0
 rdr_addr_26: b19 - h26_6 = 0
 tail_sync_26_3: - a3 + t26_3 = 0
 tail_sync_26_6: - a6 + t26_6 = 0
 tail_sync_26_10: - a10 + t26_10 = 0
 tail_req_26: - b19 + t26_3 + t26_10 >= 0
 head_hidden_26: a7 - h26_7 = 0
 rdr_addr_26: b24 - h26_7 = 0
 tail_sync_26_5: - a5 + t26_5 = 0
 tail_sync_26_7: - a7 + t26_7 = 0
 tail_req_26: - b24 + t26_5 >= 0
 head_hidden_26: a7 - h26_7 = 0
 rdr_addr_26: b12 - h26_7 = 0
 tail_sync_26_2: - a2 + t26_2 = 0
 tail_sync_26_7: - a7 + t26_7 = 0
 tail_req_26: - b12 + t26_2 >= 0
 head_hidden_26: a7 - h26_7 = 0
 rdr_addr_26: b15 - h26_7 = 0
 tail_sync_26_3: - a3 + t26_3 = 0
 tail_sync_26_7: - a7 + t26_7 = 0
 tail_req_26: - b15 + t26_3 >= 0
 head_hidden_26: a7 - h26_7 = 0
 rdr_addr_26: b21 - h26_7 = 0
 tail_sync_26_4: - a4 + t26_4 = 0
 tail_sync_26_7: - a7 + t26_7 = 0
 tail_req_26: - b21 + t26_4 >= 0
 head_hidden_26: a7 - h26_7 = 0
 rdr_addr_26: b26 - h26_7 = 0
 tail_sync_26_6: - a6 + t26_6 = 0
 tail_sync_26_7: - a7 + t26_7 = 0
 tail_req_26: - b26 + t26_6 >= 0
 head_hidden_27: a8 - h27_8 = 0
 rdr_addr_27: b27 - h27_8 = 0
 tail_sync_27_8: - a8 + t27_8 = 0
 tail_sync_27_9: - a9 + t27_9 = 0
 tail_req_27: - b27 + t27_9 >= 0
 head_hidden_27: a8 - h27_8 = 0
 rdr_addr_27: b16 - h27_8 = 0
 tail_sync_27_3: - a3 + t27_3 = 0
 tail_sync_27_8: - a8 + t27_8 = 0
 tail_sync_27_9: - a9 + t27_9 = 0
 tail_req_27: - b16 + t27_3 + t27_9 >= 0
 head_hidden_27: a8 - h27_8 = 0
 rdr_addr_27: b17 - h27_8 = 0
 tail_sync_27_3: - a3 + t27_3 = 0
 tail_sync_27_8: - a8 + t27_8 = 0
 tail_sync_27_10: - a10 + t27_10 = 0
 tail_req_27: - b17 + t27_3 + t27_10 >= 0
 head_hidden_27: a8 - h27_8 = 0
 rdr_addr_27: b23 - h27_8 = 0
 tail_sync_27_8: - a8 + t27_8 = 0
 tail_sync_27_4: - a4 + t27_4 = 0
 tail_sync_27_9: - a9 + t27_9 = 0
 tail_req_27: - b23 + t27_4 + t27_9 >= 0
 head_hidden_28: a8 - h28_8 = 0
 rdr_addr_28: b28 - h28_8 = 0
 tail_sync_28_8: - a8 + t28_8 = 0
 tail_sync_28_10: - a10 + t28_10 = 0
 tail_sync_28_9: - a9 + t28_9 = 0
 tail_req_28: - b28 + t28_10 + t28_9 >= 0
 head_hidden_28: a9 - h28_9 = 0
 rdr_addr_28: b27 - h28_9 = 0
 tail_sync_28_8: - a8 + t28_8 = 0
 tail_sync_28_9: - a9 + t28_9 = 0
 tail_req_28: - b27 + t28_8 >= 0
 head_hidden_28: a9 - h28_9 = 0
 rdr_addr_28: b16 - h28_9 = 0
 tail_sync_28_3: - a3 + t28_3 = 0
 tail_sync_28_8: - a8 + t28_8 = 0
 tail_sync_28_9: - a9 + t28_9 = 0
 tail_req_28: - b16 + t28_3 + t28_8 >= 0
 head_hidden_28: a9 - h28_9 = 0
 rdr_addr_28: b22 - h28_9 = 0
 tail_sync_28_4: - a4 + t28_4 = 0
 tail_sync_28_10: - a10 + t28_10 = 0
 tail_sync_28_9: - a9 + t28_9 = 0
 tail_req_28: - b22 + t28_4 + t28_10 >= 0
 head_hidden_28: a9 - h28_9 = 0
 rdr_addr_28: b23 - h28_9 = 0
 tail_sync_28_8: - a8 + t28_8 = 0
 tail_sync_28_4: - a4 + t28_4 = 0
 tail_sync_28_9: - a9 + t28_9 = 0
 tail_req_28: - b23 + t28_8 + t28_4 >= 0
 head_hidden_28: a9 - h28_9 = 0
 rdr_addr_28: b18 - h28_9 = 0
 tail_sync_28_3: - a3 + t28_3 = 0
 tail_sync_28_10: - a10 + t28_10 = 0
 tail_sync_28_9: - a9 + t28_9 = 0
 tail_req_28: - b18 + t28_3 + t28_10 >= 0
 head_hidden_28: a9 - h28_9 = 0
 rdr_addr_28: b28 - h28_9 = 0
 tail_sync_28_8: - a8 + t28_8 = 0
 tail_sync_28_10: - a10 + t28_10 = 0
 tail_sync_28_9: - a9 + t28_9 = 0
 tail_req_28: - b28 + t28_8 + t28_10 >= 0
 head_hidden_28: a10 - h28_10 = 0
 rdr_addr_28: b22 - h28_10 = 0
 tail_sync_28_4: - a4 + t28_4 = 0
 tail_sync_28_10: - a10 + t28_10 = 0
 tail_sync_28_9: - a9 + t28_9 = 0
 tail_req_28: - b22 + t28_4 + t28_9 >= 0
 head_hidden_28: a10 - h28_10 = 0
 rdr_addr_28: b17 - h28_10 = 0
 tail_sync_28_3: - a3 + t28_3 = 0
 tail_sync_28_8: - a8 + t28_8 = 0
 tail_sync_28_10: - a10 + t28_10 = 0
 tail_req_28: - b17 + t28_3 + t28_8 >= 0
 head_hidden_28: a10 - h28_10 = 0
 rdr_addr_28: b18 - h28_10 = 0
 tail_sync_28_3: - a3 + t28_3 = 0
 tail_sync_28_10: - a10 + t28_10 = 0
 tail_sync_28_9: - a9 + t28_9 = 0
 tail_req_28: - b18 + t28_3 + t28_9 >= 0
 head_hidden_28: a10 - h28_10 = 0
 rdr_addr_28: b28 - h28_10 = 0
 tail_sync_28_8: - a8 + t28_8 = 0
 tail_sync_28_10: - a10 + t28_10 = 0
 tail_sync_28_9: - a9 + t28_9 = 0
 tail_req_28: - b28 + t28_8 + t28_9 >= 0
 head_hidden_28: a10 - h28_10 = 0
 rdr_addr_28: b19 - h28_10 = 0
 tail_sync_28_3: - a3 + t28_3 = 0
 tail_sync_28_6: - a6 + t28_6 = 0
 tail_sync_28_10: - a10 + t28_10 = 0
 tail_req_28: - b19 + t28_3 + t28_6 >= 0
Bounds
 a0 = 1
Binaries
 a0 b0 h0_0 a1 t0_1 t0_0 b1 h1_0 a2 t1_2 t1_0 b2 h2_0 a3 t2_3 t2_0 b3 h3_0
 a4 t3_4 t3_0 h3_1 t3_1 t3_0 b4 h4_1 a5 t4_5 t4_1 b5 h5_1 t5_1 a6 t5_6 b6
 h6_1 t6_2 t6_1 b7 h7_1 t7_3 t7_1 b8 h8_1 t8_1 t8_4 h8_2 t8_2 t8_0 h8_2
 t8_2 t8_1 b9 h9_2 t9_2 t9_3 b10 h10_2 t10_2 t10_4 b11 h11_2 t11_2 t11_6
 b12 h12_2 t12_2 a7 t12_7 h12_3 t12_3 t12_0 h12_3 t12_2 t12_3 h12_3 t12_3
 t12_1 b13 h13_3 t13_3 t13_4 b14 h14_3 t14_3 t14_6 b15 h15_3 t15_3 t15_7
 b16 h16_3 t16_3 a8 t16_8 a9 t16_9 b17 h17_3 t17_3 t17_8 a10 t17_10 b18
 h18_3 t18_3 t18_10 t18_9 b19 h19_3 t19_3 t19_6 t19_10 h19_4 t19_4 t19_0
 h19_4 t19_2 t19_4 h19_4 t19_1 t19_4 h19_4 t19_3 t19_4 b20 h20_4 t20_4
 t20_6 b21 h21_4 t21_4 t21_7 b22 h22_4 t22_4 t22_10 t22_9 b23 h23_4 t23_8
 t23_4 t23_9 h23_5 t23_5 t23_1 b24 h24_5 t24_5 t24_7 b25 h25_5 t25_5 t25_6
 h25_6 t25_1 t25_6 h25_6 t25_5 t25_6 h25_6 t25_2 t25_6 h25_6 t25_3 t25_6
 h25_6 t25_4 t25_6 b26 h26_6 t26_6 t26_7 h26_6 t26_3 t26_6 t26_10 h26_7
 t26_5 t26_7 h26_7 t26_2 t26_7 h26_7 t26_3 t26_7 h26_7 t26_4 t26_7 h26_7
 t26_6 t26_7 b27 h27_8 t27_8 t27_9 h27_8 t27_3 t27_8 t27_9 h27_8 t27_3
 t27_8 t27_10 h27_8 t27_8 t27_4 t27_9 b28 h28_8 t28_8 t28_10 t28_9 h28_9
 t28_8 t28_9 h28_9 t28_3 t28_8 t28_9 h28_9 t28_4 t28_10 t28_9 h28_9 t28_8
 t28_4 t28_9 h28_9 t28_3 t28_10 t28_9 h28_9 t28_8 t28_10 t28_9 h28_10 t28_4
 t28_10 t28_9 h28_10 t28_3 t28_8 t28_10 h28_10 t28_3 t28_10 t28_9 h28_10
 t28_8 t28_10 t28_9 h28_10 t28_3 t28_6 t28_10
End
